5238
30280
21735
3832
3457
19104
11728
572
3396
3128
4808
14676
2394
3398
4130
20419
3409
8760
25710
10300
19320
7904
14552
1616
13735
9054
11472
6400
1541
6430
10707
23418
1977
20307
24480
4291
14256
2074
1778
18486
5674
26250
11008
2982
25690
5516
40270
470
6330
11808
14382
19780
30860
1034
24318
21008
15424
12104
174
1994
10080
20130
7622
12880
8232
2450
8910
8712
20030
3136
505
4150
23382
154
25810
10200
2708
15080
2828
14296
4582
28008
1704
21819
12335
25606
4902
24696
5572
1583
2703
30824
3123
515
2649
657
5988
4380
22424
